p cnf 7230 15
-1894 -2618 -3246 0
1894 -3247 0
3246 3247 0
-3243 3245 0
3244 -3245 0
3242 -3244 0
-2602 3243 0
2602 -3242 0
3240 3241 0
2600 -3241 0
-2600 -3240 0
2618 -3247 0
1896 -3249 0
-3238 3239 0
3238 -3239 0
